Route #1: 1 43 23 57 2
Route #2: 3 9 19 48 36 51 22 55 29
Route #3: 62 52 49 26 30 32
Route #4: 13 11 47 12 56 28 16
Route #5: 8 40 34 20 63 42 39 25
Route #6: 58 53 6 44 45 33 54
Route #7: 41 21 27 38 31 17 46 7
Route #8: 5 24 60 59 35 4 14 15
Route #9: 10 18 61 50 37
cost 1082.976318359375